WARNING: for repeatability, setting FPU to use double precision
============================[ Problem Statistics ]=============================
|                                                                             |
|  Number of variables:           757                                         |
|  Number of clauses:            4269                                         |
|  Parse time:                   0.00 s                                       |
|                                                                             |
c ============================[ Search Statistics ]==============================
c | Conflicts |          ORIGINAL         |          LEARNT          | Progress |
c |           |    Vars  Clauses Literals |    Limit  Clauses Lit/Cl |          |
c ===============================================================================
We had 79 decisions of which only 0 were on extended
We had 54408 decisions of which only 0.727834 were on extended
We had 76115 decisions of which only 1.67772 were on extended
We had 93414 decisions of which only 5.94343 were on extended
We had 113888 decisions of which only 16.1185 were on extended
We had 133461 decisions of which only 22.4822 were on extended
We had 144372 decisions of which only 20.7831 were on extended
We had 155501 decisions of which only 19.2957 were on extended
We had 166684 decisions of which only 18.0071 were on extended
We had 177802 decisions of which only 16.8924 were on extended
We had 188321 decisions of which only 15.9642 were on extended
We had 198721 decisions of which only 15.1529 were on extended
We had 209749 decisions of which only 14.3815 were on extended
We had 220786 decisions of which only 13.6992 were on extended
We had 232134 decisions of which only 13.0675 were on extended
We had 243188 decisions of which only 12.5014 were on extended
c Switched to VSIDS.
We had 254743 decisions of which only 11.9646 were on extended
We had 268224 decisions of which only 11.3897 were on extended
We had 280483 decisions of which only 10.913 were on extended
Window full
Some very high
Continue
We had 292121 decisions of which only 10.5001 were on extended
We had 303422 decisions of which only 10.1183 were on extended
We had 314324 decisions of which only 9.77145 were on extended
We had 324972 decisions of which only 9.45589 were on extended
We had 335930 decisions of which only 9.15459 were on extended
We had 347320 decisions of which only 8.86042 were on extended
We had 358178 decisions of which only 8.59684 were on extended
We had 369052 decisions of which only 8.34517 were on extended
We had 379787 decisions of which only 8.11639 were on extended
c Switched to LRB.
We had 391029 decisions of which only 7.89788 were on extended
We had 402104 decisions of which only 7.68309 were on extended
We had 413152 decisions of which only 7.48102 were on extended
We had 424102 decisions of which only 7.29211 were on extended
We had 434515 decisions of which only 7.11989 were on extended
We had 444844 decisions of which only 6.95862 were on extended
We had 455179 decisions of which only 6.80458 were on extended
We had 465477 decisions of which only 6.65704 were on extended
We had 476153 decisions of which only 6.51114 were on extended
We had 487334 decisions of which only 6.36586 were on extended
We had 498234 decisions of which only 6.23302 were on extended
c Switched to VSIDS.
We had 509454 decisions of which only 6.10104 were on extended
We had 520275 decisions of which only 5.97934 were on extended
We had 530710 decisions of which only 5.86309 were on extended
We had 541749 decisions of which only 5.75469 were on extended
We had 552357 decisions of which only 5.65124 were on extended
We had 563205 decisions of which only 5.55482 were on extended
We had 573937 decisions of which only 5.45948 were on extended
We had 584433 decisions of which only 5.36298 were on extended
We had 595691 decisions of which only 5.27572 were on extended
We had 606869 decisions of which only 5.18662 were on extended
We had 617941 decisions of which only 5.10178 were on extended
c Switched to LRB.
We had 629606 decisions of which only 5.0511 were on extended
We had 640416 decisions of which only 4.96911 were on extended
We had 651214 decisions of which only 4.88933 were on extended
We had 662268 decisions of which only 4.81104 were on extended
We had 673060 decisions of which only 4.7394 were on extended
We had 684125 decisions of which only 4.66479 were on extended
We had 694418 decisions of which only 4.59738 were on extended
We had 704713 decisions of which only 4.53149 were on extended
We had 715526 decisions of which only 4.46483 were on extended
We had 726491 decisions of which only 4.39964 were on extended
c Switched to VSIDS.
We had 737553 decisions of which only 4.34437 were on extended
We had 748918 decisions of which only 4.29406 were on extended
We had 760198 decisions of which only 4.24218 were on extended
We had 771417 decisions of which only 4.19358 were on extended
We had 782584 decisions of which only 4.14486 were on extended
We had 794015 decisions of which only 4.09816 were on extended
We had 804986 decisions of which only 4.04877 were on extended
We had 816043 decisions of which only 4.00494 were on extended
We had 826909 decisions of which only 3.96114 were on extended
We had 838042 decisions of which only 3.91591 were on extended
c Switched to LRB.
We had 849809 decisions of which only 3.90652 were on extended
We had 860937 decisions of which only 3.85638 were on extended
We had 871856 decisions of which only 3.80866 were on extended
We had 883087 decisions of which only 3.76158 were on extended
We had 894104 decisions of which only 3.71579 were on extended
We had 905211 decisions of which only 3.6713 were on extended
We had 915772 decisions of which only 3.63027 were on extended
We had 926433 decisions of which only 3.58893 were on extended
CAREFUL: the definition is falsified in conflict 776489 at DL 15 (has happened 1 times)
We had 937167 decisions of which only 3.54857 were on extended
We had 947673 decisions of which only 3.51018 were on extended
We had 958436 decisions of which only 3.47232 were on extended
We had 969100 decisions of which only 3.43535 were on extended
We had 979780 decisions of which only 3.39811 were on extended
We had 990408 decisions of which only 3.36235 were on extended
We had 1001252 decisions of which only 3.32624 were on extended
We had 1011973 decisions of which only 3.29139 were on extended
c Switched to VSIDS.
We had 1023252 decisions of which only 3.2641 were on extended
We had 1034742 decisions of which only 3.24216 were on extended
We had 1045903 decisions of which only 3.21693 were on extended
c Switched to LRB.
We had 1058042 decisions of which only 3.23002 were on extended
We had 1069390 decisions of which only 3.19743 were on extended
We had 1080545 decisions of which only 3.16535 were on extended
We had 1091841 decisions of which only 3.13297 were on extended
We had 1102731 decisions of which only 3.10302 were on extended
We had 1113996 decisions of which only 3.07443 were on extended
We had 1125150 decisions of which only 3.04617 were on extended
c Switched to VSIDS.
We had 1136642 decisions of which only 3.0181 were on extended
We had 1147920 decisions of which only 2.99864 were on extended
We had 1159258 decisions of which only 2.9782 were on extended
We had 1170172 decisions of which only 2.95649 were on extended
We had 1181553 decisions of which only 2.93825 were on extended
We had 1192682 decisions of which only 2.92098 were on extended
We had 1203507 decisions of which only 2.9031 were on extended
We had 1214045 decisions of which only 2.88424 were on extended
We had 1225478 decisions of which only 2.86949 were on extended
We had 1236888 decisions of which only 2.85377 were on extended
c Switched to LRB.
We had 1249024 decisions of which only 2.88473 were on extended
We had 1260021 decisions of which only 2.85995 were on extended
We had 1271049 decisions of which only 2.83663 were on extended
We had 1282458 decisions of which only 2.81179 were on extended
We had 1293456 decisions of which only 2.78873 were on extended
We had 1305144 decisions of which only 2.76483 were on extended
We had 1316313 decisions of which only 2.74175 were on extended
c Switched to VSIDS.
We had 1327437 decisions of which only 2.72216 were on extended
We had 1338850 decisions of which only 2.70941 were on extended
We had 1350724 decisions of which only 2.69537 were on extended
We had 1362116 decisions of which only 2.68259 were on extended
We had 1373498 decisions of which only 2.67026 were on extended
We had 1384825 decisions of which only 2.65961 were on extended
We had 1396185 decisions of which only 2.64621 were on extended
We had 1407320 decisions of which only 2.63373 were on extended
We had 1418410 decisions of which only 2.62153 were on extended
We had 1429610 decisions of which only 2.60742 were on extended
c Switched to LRB.
We had 1443237 decisions of which only 2.70766 were on extended
We had 1454555 decisions of which only 2.68783 were on extended
We had 1466077 decisions of which only 2.66807 were on extended
We had 1477017 decisions of which only 2.64892 were on extended
We had 1487743 decisions of which only 2.63056 were on extended
We had 1498658 decisions of which only 2.6116 were on extended
We had 1509553 decisions of which only 2.59342 were on extended
We had 1520391 decisions of which only 2.57592 were on extended
c Switched to VSIDS.
We had 1531406 decisions of which only 2.56209 were on extended
We had 1542481 decisions of which only 2.55018 were on extended
We had 1553875 decisions of which only 2.54113 were on extended
We had 1565091 decisions of which only 2.52957 were on extended
We had 1576726 decisions of which only 2.52092 were on extended
We had 1587978 decisions of which only 2.51206 were on extended
We had 1599292 decisions of which only 2.50148 were on extended
We had 1610863 decisions of which only 2.49227 were on extended
We had 1622541 decisions of which only 2.48456 were on extended
c Switched to LRB.
We had 1635964 decisions of which only 2.56106 were on extended
We had 1647654 decisions of which only 2.54392 were on extended
We had 1659425 decisions of which only 2.52823 were on extended
We had 1671077 decisions of which only 2.51323 were on extended
We had 1682033 decisions of which only 2.50025 were on extended
We had 1693597 decisions of which only 2.48678 were on extended
We had 1704819 decisions of which only 2.47328 were on extended
We had 1716253 decisions of which only 2.45954 were on extended
We had 1727575 decisions of which only 2.44655 were on extended
c Switched to VSIDS.
We had 1739013 decisions of which only 2.43592 were on extended
We had 1750674 decisions of which only 2.43283 were on extended
We had 1761784 decisions of which only 2.42606 were on extended
We had 1773109 decisions of which only 2.41999 were on extended
We had 1784708 decisions of which only 2.41423 were on extended
We had 1796137 decisions of which only 2.40839 were on extended
We had 1807290 decisions of which only 2.40166 were on extended
We had 1818446 decisions of which only 2.39364 were on extended
We had 1829872 decisions of which only 2.38825 were on extended
c Switched to LRB.
We had 1843284 decisions of which only 2.4796 were on extended
We had 1854543 decisions of which only 2.46519 were on extended
We had 1865860 decisions of which only 2.45029 were on extended
We had 1877210 decisions of which only 2.4358 were on extended
We had 1888683 decisions of which only 2.42111 were on extended
We had 1899958 decisions of which only 2.40911 were on extended
We had 1911589 decisions of which only 2.39617 were on extended
We had 1923089 decisions of which only 2.38268 were on extended
We had 1934523 decisions of which only 2.37046 were on extended
c Switched to VSIDS.
We had 1946014 decisions of which only 2.36668 were on extended
We had 1957708 decisions of which only 2.36292 were on extended
We had 1969255 decisions of which only 2.35891 were on extended
We had 1980623 decisions of which only 2.35451 were on extended
We had 1992105 decisions of which only 2.34817 were on extended
We had 2003262 decisions of which only 2.34153 were on extended
We had 2014737 decisions of which only 2.33529 were on extended
We had 2026292 decisions of which only 2.32977 were on extended
We had 2037596 decisions of which only 2.32612 were on extended
We had 2048869 decisions of which only 2.3224 were on extended
c Switched to LRB.
We had 2062930 decisions of which only 2.41744 were on extended
We had 2073989 decisions of which only 2.40725 were on extended
We had 2085009 decisions of which only 2.39917 were on extended
We had 2096072 decisions of which only 2.39042 were on extended
We had 2107058 decisions of which only 2.3809 were on extended
We had 2118164 decisions of which only 2.37106 were on extended
We had 2129297 decisions of which only 2.36167 were on extended
We had 2140339 decisions of which only 2.35238 were on extended
We had 2151206 decisions of which only 2.34194 were on extended
We had 2162432 decisions of which only 2.33256 were on extended
We had 2173359 decisions of which only 2.32332 were on extended
We had 2184588 decisions of which only 2.31247 were on extended
We had 2195791 decisions of which only 2.30204 were on extended
We had 2206864 decisions of which only 2.29253 were on extended
We had 2218035 decisions of which only 2.28279 were on extended
We had 2229076 decisions of which only 2.27251 were on extended
We had 2240310 decisions of which only 2.26268 were on extended
We had 2251475 decisions of which only 2.25226 were on extended
We had 2262755 decisions of which only 2.24222 were on extended
We had 2274244 decisions of which only 2.23252 were on extended
We had 2285448 decisions of which only 2.22267 were on extended
c Switched to VSIDS.
c Switched to LRB.
We had 2302972 decisions of which only 2.45161 were on extended
We had 2315144 decisions of which only 2.43976 were on extended
We had 2327026 decisions of which only 2.42791 were on extended
We had 2338968 decisions of which only 2.41641 were on extended
We had 2350373 decisions of which only 2.40507 were on extended
We had 2362166 decisions of which only 2.39441 were on extended
We had 2373840 decisions of which only 2.38327 were on extended
We had 2385714 decisions of which only 2.37191 were on extended
We had 2397301 decisions of which only 2.36132 were on extended
We had 2408264 decisions of which only 2.35115 were on extended
c Switched to VSIDS.
We had 2419568 decisions of which only 2.34133 were on extended
We had 2431288 decisions of which only 2.33888 were on extended
We had 2443116 decisions of which only 2.33554 were on extended
We had 2454593 decisions of which only 2.33265 were on extended
We had 2465839 decisions of which only 2.32805 were on extended
We had 2477434 decisions of which only 2.32668 were on extended
We had 2488923 decisions of which only 2.32209 were on extended
We had 2500357 decisions of which only 2.31891 were on extended
We had 2511874 decisions of which only 2.31696 were on extended
We had 2523287 decisions of which only 2.31393 were on extended
We had 2535064 decisions of which only 2.31371 were on extended
We had 2546565 decisions of which only 2.31056 were on extended
We had 2558063 decisions of which only 2.30854 were on extended
We had 2569767 decisions of which only 2.30721 were on extended
We had 2580751 decisions of which only 2.30359 were on extended
c Switched to LRB.
We had 2596147 decisions of which only 2.42648 were on extended
We had 2607823 decisions of which only 2.41654 were on extended
We had 2619538 decisions of which only 2.40653 were on extended
We had 2631167 decisions of which only 2.3965 were on extended
We had 2642554 decisions of which only 2.38674 were on extended
We had 2654216 decisions of which only 2.37754 were on extended
We had 2666244 decisions of which only 2.36779 were on extended
We had 2678173 decisions of which only 2.35821 were on extended
c Switched to VSIDS.
We had 2689864 decisions of which only 2.3509 were on extended
We had 2701582 decisions of which only 2.35192 were on extended
We had 2713148 decisions of which only 2.34923 were on extended
We had 2724815 decisions of which only 2.3475 were on extended
We had 2736223 decisions of which only 2.34513 were on extended
We had 2747772 decisions of which only 2.34201 were on extended
We had 2759040 decisions of which only 2.33726 were on extended
We had 2770409 decisions of which only 2.33218 were on extended
We had 2782076 decisions of which only 2.33002 were on extended
We had 2793485 decisions of which only 2.32888 were on extended
We had 2805079 decisions of which only 2.32518 were on extended
We had 2816800 decisions of which only 2.32402 were on extended
We had 2828153 decisions of which only 2.32212 were on extended
c Switched to LRB.
We had 2843954 decisions of which only 2.44733 were on extended
We had 2855642 decisions of which only 2.43805 were on extended
We had 2866965 decisions of which only 2.42943 were on extended
We had 2878268 decisions of which only 2.42069 were on extended
We had 2889534 decisions of which only 2.41163 were on extended
We had 2901274 decisions of which only 2.40236 were on extended
We had 2913448 decisions of which only 2.39338 were on extended
We had 2925202 decisions of which only 2.38476 were on extended
We had 2937083 decisions of which only 2.37583 were on extended
We had 2948514 decisions of which only 2.36726 were on extended
c Switched to VSIDS.
We had 2960156 decisions of which only 2.35981 were on extended
We had 2971813 decisions of which only 2.35859 were on extended
We had 2983674 decisions of which only 2.35656 were on extended
We had 2995243 decisions of which only 2.35487 were on extended
We had 3006845 decisions of which only 2.35273 were on extended
We had 3018458 decisions of which only 2.35034 were on extended
We had 3029908 decisions of which only 2.34931 were on extended
We had 3041756 decisions of which only 2.34618 were on extended
We had 3053132 decisions of which only 2.34474 were on extended
We had 3064858 decisions of which only 2.3438 were on extended
We had 3076211 decisions of which only 2.33953 were on extended
We had 3087890 decisions of which only 2.34047 were on extended
We had 3099712 decisions of which only 2.33973 were on extended
We had 3111508 decisions of which only 2.33909 were on extended
We had 3123135 decisions of which only 2.33624 were on extended
c Switched to LRB.
We had 3139801 decisions of which only 2.46926 were on extended
We had 3151796 decisions of which only 2.46053 were on extended
We had 3163954 decisions of which only 2.45168 were on extended
We had 3175900 decisions of which only 2.44331 were on extended
We had 3187332 decisions of which only 2.43505 were on extended
We had 3199191 decisions of which only 2.4268 were on extended
We had 3210913 decisions of which only 2.41897 were on extended
We had 3222892 decisions of which only 2.41094 were on extended
We had 3234436 decisions of which only 2.40311 were on extended
c Switched to VSIDS.
We had 3246217 decisions of which only 2.39682 were on extended
We had 3258062 decisions of which only 2.39434 were on extended
We had 3269775 decisions of which only 2.39289 were on extended
We had 3281723 decisions of which only 2.39201 were on extended
We had 3293521 decisions of which only 2.39288 were on extended
We had 3304854 decisions of which only 2.39369 were on extended
We had 3316280 decisions of which only 2.39392 were on extended
We had 3328400 decisions of which only 2.39334 were on extended
We had 3340551 decisions of which only 2.39287 were on extended
We had 3352221 decisions of which only 2.39188 were on extended
We had 3363737 decisions of which only 2.39059 were on extended
We had 3375357 decisions of which only 2.38896 were on extended
We had 3387228 decisions of which only 2.38779 were on extended
We had 3398972 decisions of which only 2.38713 were on extended
c Switched to LRB.
We had 3415077 decisions of which only 2.49248 were on extended
We had 3427279 decisions of which only 2.48407 were on extended
We had 3438905 decisions of which only 2.47672 were on extended
We had 3450867 decisions of which only 2.46874 were on extended
We had 3462481 decisions of which only 2.46127 were on extended
We had 3473943 decisions of which only 2.45398 were on extended
We had 3485394 decisions of which only 2.44652 were on extended
We had 3496858 decisions of which only 2.43962 were on extended
We had 3508051 decisions of which only 2.43306 were on extended
We had 3519494 decisions of which only 2.42558 were on extended
We had 3531033 decisions of which only 2.41853 were on extended
We had 3542571 decisions of which only 2.41113 were on extended
We had 3553878 decisions of which only 2.40411 were on extended
We had 3565087 decisions of which only 2.3973 were on extended
c Switched to VSIDS.
We had 3576831 decisions of which only 2.3964 were on extended
We had 3588533 decisions of which only 2.39427 were on extended
We had 3600102 decisions of which only 2.39188 were on extended
We had 3611735 decisions of which only 2.39253 were on extended
We had 3622938 decisions of which only 2.39024 were on extended
We had 3634472 decisions of which only 2.38976 were on extended
We had 3646010 decisions of which only 2.38743 were on extended
We had 3657773 decisions of which only 2.38473 were on extended
We had 3669380 decisions of which only 2.38313 were on extended
We had 3681232 decisions of which only 2.38192 were on extended
We had 3693181 decisions of which only 2.38147 were on extended
We had 3705391 decisions of which only 2.38277 were on extended
We had 3717118 decisions of which only 2.38112 were on extended
We had 3728945 decisions of which only 2.38118 were on extended
We had 3740594 decisions of which only 2.38013 were on extended
We had 3752327 decisions of which only 2.37767 were on extended
We had 3764064 decisions of which only 2.37783 were on extended
c Switched to LRB.
We had 3780783 decisions of which only 2.49774 were on extended
We had 3792823 decisions of which only 2.49089 were on extended
We had 3804944 decisions of which only 2.48437 were on extended
We had 3816952 decisions of which only 2.47687 were on extended
We had 3828479 decisions of which only 2.4702 were on extended
We had 3840483 decisions of which only 2.46344 were on extended
We had 3852563 decisions of which only 2.45766 were on extended
We had 3864663 decisions of which only 2.45093 were on extended
We had 3876491 decisions of which only 2.4445 were on extended
We had 3887803 decisions of which only 2.43798 were on extended
c Switched to VSIDS.
We had 3899346 decisions of which only 2.43241 were on extended
We had 3911350 decisions of which only 2.43248 were on extended
We had 3923366 decisions of which only 2.43263 were on extended
We had 3934916 decisions of which only 2.4321 were on extended
We had 3946508 decisions of which only 2.43304 were on extended
We had 3958113 decisions of which only 2.43227 were on extended
We had 3969829 decisions of which only 2.43222 were on extended
We had 3981441 decisions of which only 2.431 were on extended
We had 3993225 decisions of which only 2.43204 were on extended
We had 4005037 decisions of which only 2.43124 were on extended
We had 4017135 decisions of which only 2.43044 were on extended
We had 4028748 decisions of which only 2.42981 were on extended
We had 4040853 decisions of which only 2.42912 were on extended
We had 4052667 decisions of which only 2.42788 were on extended
We had 4064671 decisions of which only 2.42922 were on extended
We had 4076460 decisions of which only 2.42875 were on extended
c Switched to LRB.
We had 4094613 decisions of which only 2.56176 were on extended
We had 4106887 decisions of which only 2.55485 were on extended
We had 4119120 decisions of which only 2.54795 were on extended
We had 4131075 decisions of which only 2.54157 were on extended
We had 4142484 decisions of which only 2.53536 were on extended
We had 4154724 decisions of which only 2.52886 were on extended
We had 4166632 decisions of which only 2.52261 were on extended
We had 4178874 decisions of which only 2.51618 were on extended
We had 4190691 decisions of which only 2.50994 were on extended
We had 4202362 decisions of which only 2.50404 were on extended
We had 4213650 decisions of which only 2.49805 were on extended
We had 4225395 decisions of which only 2.49203 were on extended
We had 4236833 decisions of which only 2.48629 were on extended
We had 4249016 decisions of which only 2.48003 were on extended
c Switched to VSIDS.
We had 4260888 decisions of which only 2.47904 were on extended
We had 4272687 decisions of which only 2.4801 were on extended
We had 4284710 decisions of which only 2.48056 were on extended
We had 4296569 decisions of which only 2.47956 were on extended
We had 4308432 decisions of which only 2.47874 were on extended
We had 4320307 decisions of which only 2.47897 were on extended
We had 4332503 decisions of which only 2.47901 were on extended
We had 4344137 decisions of which only 2.47897 were on extended
We had 4356129 decisions of which only 2.48025 were on extended
We had 4367765 decisions of which only 2.47951 were on extended
We had 4379779 decisions of which only 2.47878 were on extended
We had 4391532 decisions of which only 2.47932 were on extended
We had 4403608 decisions of which only 2.4796 were on extended
We had 4415343 decisions of which only 2.47795 were on extended
We had 4427377 decisions of which only 2.47817 were on extended
We had 4439209 decisions of which only 2.47663 were on extended
We had 4451370 decisions of which only 2.4771 were on extended
c Switched to LRB.
We had 4469289 decisions of which only 2.60055 were on extended
We had 4481361 decisions of which only 2.59464 were on extended
We had 4493576 decisions of which only 2.58836 were on extended
We had 4505158 decisions of which only 2.58244 were on extended
We had 4517092 decisions of which only 2.57613 were on extended
We had 4529170 decisions of which only 2.57003 were on extended
We had 4540975 decisions of which only 2.56401 were on extended
We had 4552955 decisions of which only 2.55799 were on extended
We had 4564581 decisions of which only 2.55217 were on extended
We had 4575988 decisions of which only 2.54664 were on extended
We had 4588280 decisions of which only 2.54049 were on extended
We had 4600335 decisions of which only 2.53464 were on extended
We had 4612624 decisions of which only 2.52863 were on extended
We had 4624545 decisions of which only 2.52338 were on extended
c Switched to VSIDS.
We had 4636226 decisions of which only 2.52046 were on extended
We had 4648130 decisions of which only 2.5208 were on extended
We had 4659990 decisions of which only 2.52084 were on extended
We had 4671738 decisions of which only 2.52011 were on extended
We had 4683477 decisions of which only 2.51967 were on extended
We had 4695493 decisions of which only 2.52074 were on extended
We had 4707422 decisions of which only 2.52074 were on extended
We had 4719518 decisions of which only 2.52091 were on extended
We had 4731559 decisions of which only 2.52207 were on extended
We had 4743423 decisions of which only 2.5216 were on extended
We had 4755275 decisions of which only 2.52038 were on extended
We had 4767290 decisions of which only 2.52009 were on extended
We had 4779194 decisions of which only 2.51936 were on extended
We had 4791016 decisions of which only 2.51901 were on extended
We had 4802567 decisions of which only 2.51763 were on extended
We had 4814432 decisions of which only 2.51714 were on extended
We had 4826159 decisions of which only 2.5149 were on extended
We had 4838120 decisions of which only 2.51391 were on extended
c Switched to LRB.
We had 4857264 decisions of which only 2.65188 were on extended
We had 4870116 decisions of which only 2.64565 were on extended
We had 4881989 decisions of which only 2.64003 were on extended
We had 4894109 decisions of which only 2.63415 were on extended
We had 4905960 decisions of which only 2.6287 were on extended
We had 4917411 decisions of which only 2.62321 were on extended
We had 4929133 decisions of which only 2.61809 were on extended
We had 4940672 decisions of which only 2.61278 were on extended
We had 4952282 decisions of which only 2.6072 were on extended
We had 4964174 decisions of which only 2.6021 were on extended
We had 4975781 decisions of which only 2.59694 were on extended
We had 4987457 decisions of which only 2.59138 were on extended
We had 4999135 decisions of which only 2.58621 were on extended
We had 5010531 decisions of which only 2.58098 were on extended
We had 5022389 decisions of which only 2.57583 were on extended
We had 5034164 decisions of which only 2.57089 were on extended
We had 5045720 decisions of which only 2.56582 were on extended
We had 5057154 decisions of which only 2.56101 were on extended
We had 5068815 decisions of which only 2.55616 were on extended
We had 5080588 decisions of which only 2.55106 were on extended
We had 5092027 decisions of which only 2.54608 were on extended
We had 5103738 decisions of which only 2.54153 were on extended
We had 5115311 decisions of which only 2.53689 were on extended
We had 5126947 decisions of which only 2.53186 were on extended
We had 5138738 decisions of which only 2.52716 were on extended
We had 5150701 decisions of which only 2.52243 were on extended
We had 5162452 decisions of which only 2.51772 were on extended
We had 5174342 decisions of which only 2.51271 were on extended
We had 5185856 decisions of which only 2.50782 were on extended
We had 5197776 decisions of which only 2.50296 were on extended
We had 5209735 decisions of which only 2.49825 were on extended
We had 5221521 decisions of which only 2.49337 were on extended
We had 5233115 decisions of which only 2.48863 were on extended
We had 5244965 decisions of which only 2.4841 were on extended
We had 5256665 decisions of which only 2.47969 were on extended
We had 5268641 decisions of which only 2.47504 were on extended
We had 5280411 decisions of which only 2.47057 were on extended
We had 5291930 decisions of which only 2.46592 were on extended
We had 5303518 decisions of which only 2.46123 were on extended
We had 5315200 decisions of which only 2.45682 were on extended
We had 5326892 decisions of which only 2.45259 were on extended
We had 5338433 decisions of which only 2.44836 were on extended
We had 5350226 decisions of which only 2.44384 were on extended
c ===============================================================================
restarts                  : 5154
conflicts                 : 4542598        (1274 /sec)
decisions                 : 5353235        (0.00 % random) (1501 /sec)
propagations              : 12100909370    (3393184 /sec)
conflict literals         : 120760253      (40.78 % deleted)

conflicts w/ DIP found    : 2507909        (55.21 % of conflicts)
conflicts w/ dangerous DIP: 30             (0.00 % of conflicts)
conflicts w/ DIP-learning : 313683         (6.91 % of conflicts)
decisions on ext vars     : 130756         (2.44 % of decisions)
total ext vars            : 228590      
tried delete ext vars     : 227250      
deleted ext vars          : 227250      
max ext vars              : 2336        

Memory used               : 219.00 MB
CPU time                  : 3566.24 s
DIP computation time      : 53.3066 s (1.49 % of total time)
ER_sel time               : 4.52602 s
ER_add time               : 0.84992 s
ER_delC time              : 0 s
ER_delV time              : 1.08437 s
ER_sub time               : 6.70005 s
ER_stat time              : 0 s

INDETERMINATE
